sat
(
  (define-fun H () String
    "aaaa")
  (define-fun I () String
    "b")
  (define-fun K () String
    "")
  (define-fun G () String
    "")
  (define-fun F () String
    "")
  (define-fun M () String
    "")
  (define-fun L () String
    "")
  (define-fun P () String
    "abbbbbaa")
  (define-fun R () String
    "abbbb")
)
